p wcnf 227 622 16
2 1 0
2 2 0
2 23 0
2 39 0
2 50 0
2 57 0
3 7 0
16 -1 64 0
16 -64 65 0
16 -2 -64 0
16 -2 65 0
16 -65 66 0
16 -3 -65 0
16 -3 66 0
16 -66 67 0
16 -4 -66 0
16 -4 67 0
16 -67 68 0
16 -5 -67 0
16 -5 68 0
16 -68 69 0
16 -6 -68 0
16 -6 69 0
16 -69 70 0
16 -7 -69 0
16 -7 70 0
16 -70 71 0
16 -8 -70 0
16 -8 71 0
16 -71 72 0
16 -9 -71 0
16 -9 72 0
16 -72 73 0
16 -10 -72 0
16 -10 73 0
16 -73 74 0
16 -11 -73 0
16 -11 74 0
16 -74 75 0
16 -12 -74 0
16 -12 75 0
16 -75 76 0
16 -13 -75 0
16 -13 76 0
16 -76 77 0
16 -14 -76 0
16 -14 77 0
16 -77 78 0
16 -15 -77 0
16 -15 78 0
16 -78 79 0
16 -16 -78 0
16 -16 79 0
16 -79 80 0
16 -17 -79 0
16 -17 80 0
16 -80 81 0
16 -18 -80 0
16 -18 81 0
16 -81 82 0
16 -19 -81 0
16 -19 82 0
16 -82 83 0
16 -20 -82 0
16 -20 83 0
16 -21 -83 0
16 1 2 3 4 5 6 7 8 9 10 11 12 13 14 15 16 17 18 19 20 21 0
16 -1 84 0
16 -84 85 0
16 -23 -84 0
16 -23 85 0
16 -85 86 0
16 -24 -85 0
16 -24 86 0
16 -86 87 0
16 -25 -86 0
16 -25 87 0
16 -87 88 0
16 -26 -87 0
16 -26 88 0
16 -88 89 0
16 -27 -88 0
16 -27 89 0
16 -89 90 0
16 -7 -89 0
16 -7 90 0
16 -90 91 0
16 -8 -90 0
16 -8 91 0
16 -91 92 0
16 -9 -91 0
16 -9 92 0
16 -92 93 0
16 -10 -92 0
16 -10 93 0
16 -93 94 0
16 -11 -93 0
16 -11 94 0
16 -94 95 0
16 -28 -94 0
16 -28 95 0
16 -95 96 0
16 -29 -95 0
16 -29 96 0
16 -96 97 0
16 -30 -96 0
16 -30 97 0
16 -97 98 0
16 -31 -97 0
16 -31 98 0
16 -98 99 0
16 -32 -98 0
16 -32 99 0
16 -99 100 0
16 -33 -99 0
16 -33 100 0
16 -100 101 0
16 -34 -100 0
16 -34 101 0
16 -101 102 0
16 -35 -101 0
16 -35 102 0
16 -102 103 0
16 -36 -102 0
16 -36 103 0
16 -37 -103 0
16 1 23 24 25 26 27 7 8 9 10 11 28 29 30 31 32 33 34 35 36 37 0
16 -2 104 0
16 -104 105 0
16 -23 -104 0
16 -23 105 0
16 -105 106 0
16 -39 -105 0
16 -39 106 0
16 -106 107 0
16 -40 -106 0
16 -40 107 0
16 -107 108 0
16 -41 -107 0
16 -41 108 0
16 -108 109 0
16 -42 -108 0
16 -42 109 0
16 -109 110 0
16 -7 -109 0
16 -7 110 0
16 -110 111 0
16 -12 -110 0
16 -12 111 0
16 -111 112 0
16 -13 -111 0
16 -13 112 0
16 -112 113 0
16 -14 -112 0
16 -14 113 0
16 -113 114 0
16 -15 -113 0
16 -15 114 0
16 -114 115 0
16 -28 -114 0
16 -28 115 0
16 -115 116 0
16 -29 -115 0
16 -29 116 0
16 -116 117 0
16 -30 -116 0
16 -30 117 0
16 -117 118 0
16 -31 -117 0
16 -31 118 0
16 -118 119 0
16 -43 -118 0
16 -43 119 0
16 -119 120 0
16 -44 -119 0
16 -44 120 0
16 -120 121 0
16 -45 -120 0
16 -45 121 0
16 -121 122 0
16 -46 -121 0
16 -46 122 0
16 -122 123 0
16 -47 -122 0
16 -47 123 0
16 -48 -123 0
16 2 23 39 40 41 42 7 12 13 14 15 28 29 30 31 43 44 45 46 47 48 0
16 -3 124 0
16 -124 125 0
16 -24 -124 0
16 -24 125 0
16 -125 126 0
16 -39 -125 0
16 -39 126 0
16 -126 127 0
16 -50 -126 0
16 -50 127 0
16 -127 128 0
16 -51 -127 0
16 -51 128 0
16 -128 129 0
16 -52 -128 0
16 -52 129 0
16 -129 130 0
16 -8 -129 0
16 -8 130 0
16 -130 131 0
16 -12 -130 0
16 -12 131 0
16 -131 132 0
16 -28 -131 0
16 -28 132 0
16 -132 133 0
16 -16 -132 0
16 -16 133 0
16 -133 134 0
16 -17 -133 0
16 -17 134 0
16 -134 135 0
16 -18 -134 0
16 -18 135 0
16 -135 136 0
16 -32 -135 0
16 -32 136 0
16 -136 137 0
16 -33 -136 0
16 -33 137 0
16 -137 138 0
16 -34 -137 0
16 -34 138 0
16 -138 139 0
16 -43 -138 0
16 -43 139 0
16 -139 140 0
16 -44 -139 0
16 -44 140 0
16 -140 141 0
16 -45 -140 0
16 -45 141 0
16 -141 142 0
16 -53 -141 0
16 -53 142 0
16 -142 143 0
16 -54 -142 0
16 -54 143 0
16 -55 -143 0
16 3 24 39 50 51 52 8 12 28 16 17 18 32 33 34 43 44 45 53 54 55 0
16 -4 144 0
16 -144 145 0
16 -25 -144 0
16 -25 145 0
16 -145 146 0
16 -40 -145 0
16 -40 146 0
16 -146 147 0
16 -50 -146 0
16 -50 147 0
16 -147 148 0
16 -57 -147 0
16 -57 148 0
16 -148 149 0
16 -58 -148 0
16 -58 149 0
16 -149 150 0
16 -9 -149 0
16 -9 150 0
16 -150 151 0
16 -13 -150 0
16 -13 151 0
16 -151 152 0
16 -29 -151 0
16 -29 152 0
16 -152 153 0
16 -16 -152 0
16 -16 153 0
16 -153 154 0
16 -32 -153 0
16 -32 154 0
16 -154 155 0
16 -43 -154 0
16 -43 155 0
16 -155 156 0
16 -19 -155 0
16 -19 156 0
16 -156 157 0
16 -20 -156 0
16 -20 157 0
16 -157 158 0
16 -35 -157 0
16 -35 158 0
16 -158 159 0
16 -36 -158 0
16 -36 159 0
16 -159 160 0
16 -46 -159 0
16 -46 160 0
16 -160 161 0
16 -47 -160 0
16 -47 161 0
16 -161 162 0
16 -53 -161 0
16 -53 162 0
16 -162 163 0
16 -54 -162 0
16 -54 163 0
16 -59 -163 0
16 4 25 40 50 57 58 9 13 29 16 32 43 19 20 35 36 46 47 53 54 59 0
16 -5 164 0
16 -164 165 0
16 -26 -164 0
16 -26 165 0
16 -165 166 0
16 -41 -165 0
16 -41 166 0
16 -166 167 0
16 -51 -166 0
16 -51 167 0
16 -167 168 0
16 -57 -167 0
16 -57 168 0
16 -168 169 0
16 -61 -168 0
16 -61 169 0
16 -169 170 0
16 -10 -169 0
16 -10 170 0
16 -170 171 0
16 -14 -170 0
16 -14 171 0
16 -171 172 0
16 -30 -171 0
16 -30 172 0
16 -172 173 0
16 -17 -172 0
16 -17 173 0
16 -173 174 0
16 -33 -173 0
16 -33 174 0
16 -174 175 0
16 -44 -174 0
16 -44 175 0
16 -175 176 0
16 -19 -175 0
16 -19 176 0
16 -176 177 0
16 -35 -176 0
16 -35 177 0
16 -177 178 0
16 -46 -177 0
16 -46 178 0
16 -178 179 0
16 -53 -178 0
16 -53 179 0
16 -179 180 0
16 -21 -179 0
16 -21 180 0
16 -180 181 0
16 -37 -180 0
16 -37 181 0
16 -181 182 0
16 -48 -181 0
16 -48 182 0
16 -182 183 0
16 -55 -182 0
16 -55 183 0
16 -59 -183 0
16 5 26 41 51 57 61 10 14 30 17 33 44 19 35 46 53 21 37 48 55 59 0
16 -6 184 0
16 -184 185 0
16 -27 -184 0
16 -27 185 0
16 -185 186 0
16 -42 -185 0
16 -42 186 0
16 -186 187 0
16 -52 -186 0
16 -52 187 0
16 -187 188 0
16 -58 -187 0
16 -58 188 0
16 -188 189 0
16 -61 -188 0
16 -61 189 0
16 -189 190 0
16 -11 -189 0
16 -11 190 0
16 -190 191 0
16 -15 -190 0
16 -15 191 0
16 -191 192 0
16 -18 -191 0
16 -18 192 0
16 -192 193 0
16 -20 -192 0
16 -20 193 0
16 -193 194 0
16 -21 -193 0
16 -21 194 0
16 -194 195 0
16 -31 -194 0
16 -31 195 0
16 -195 196 0
16 -34 -195 0
16 -34 196 0
16 -196 197 0
16 -36 -196 0
16 -36 197 0
16 -197 198 0
16 -37 -197 0
16 -37 198 0
16 -198 199 0
16 -45 -198 0
16 -45 199 0
16 -199 200 0
16 -47 -199 0
16 -47 200 0
16 -200 201 0
16 -48 -200 0
16 -48 201 0
16 -201 202 0
16 -54 -201 0
16 -54 202 0
16 -202 203 0
16 -55 -202 0
16 -55 203 0
16 -59 -203 0
16 6 27 42 52 58 61 11 15 18 20 21 31 34 36 37 45 47 48 54 55 59 0
16 -1 22 0
16 -1 38 0
16 -2 22 0
16 -2 49 0
16 -3 22 0
16 -3 56 0
16 -4 22 0
16 -4 60 0
16 -5 22 0
16 -5 62 0
16 -6 22 0
16 -6 63 0
16 -23 38 0
16 -23 49 0
16 -24 38 0
16 -24 56 0
16 -25 38 0
16 -25 60 0
16 -26 38 0
16 -26 62 0
16 -27 38 0
16 -27 63 0
16 -39 49 0
16 -39 56 0
16 -40 49 0
16 -40 60 0
16 -41 49 0
16 -41 62 0
16 -42 49 0
16 -42 63 0
16 -50 56 0
16 -50 60 0
16 -51 56 0
16 -51 62 0
16 -52 56 0
16 -52 63 0
16 -57 60 0
16 -57 62 0
16 -58 60 0
16 -58 63 0
16 -61 62 0
16 -61 63 0
16 -7 -22 0
16 -7 -38 0
16 -7 -49 0
16 -8 -22 0
16 -8 -38 0
16 -8 -56 0
16 -9 -22 0
16 -9 -38 0
16 -9 -60 0
16 -10 -22 0
16 -10 -38 0
16 -10 -62 0
16 -11 -22 0
16 -11 -38 0
16 -11 -63 0
16 -12 -22 0
16 -12 -49 0
16 -12 -56 0
16 -13 -22 0
16 -13 -49 0
16 -13 -60 0
16 -14 -22 0
16 -14 -49 0
16 -14 -62 0
16 -15 -22 0
16 -15 -49 0
16 -15 -63 0
16 -16 -22 0
16 -16 -56 0
16 -16 -60 0
16 -17 -22 0
16 -17 -56 0
16 -17 -62 0
16 -18 -22 0
16 -18 -56 0
16 -18 -63 0
16 -19 -22 0
16 -19 -60 0
16 -19 -62 0
16 -20 -22 0
16 -20 -60 0
16 -20 -63 0
16 -21 -22 0
16 -21 -62 0
16 -21 -63 0
16 -28 -38 0
16 -28 -49 0
16 -28 -56 0
16 -29 -38 0
16 -29 -49 0
16 -29 -60 0
16 -30 -38 0
16 -30 -49 0
16 -30 -62 0
16 -31 -38 0
16 -31 -49 0
16 -31 -63 0
16 -32 -38 0
16 -32 -56 0
16 -32 -60 0
16 -33 -38 0
16 -33 -56 0
16 -33 -62 0
16 -34 -38 0
16 -34 -56 0
16 -34 -63 0
16 -35 -38 0
16 -35 -60 0
16 -35 -62 0
16 -36 -38 0
16 -36 -60 0
16 -36 -63 0
16 -37 -38 0
16 -37 -62 0
16 -37 -63 0
16 -43 -49 0
16 -43 -56 0
16 -43 -60 0
16 -44 -49 0
16 -44 -56 0
16 -44 -62 0
16 -45 -49 0
16 -45 -56 0
16 -45 -63 0
16 -46 -49 0
16 -46 -60 0
16 -46 -62 0
16 -47 -49 0
16 -47 -60 0
16 -47 -63 0
16 -48 -49 0
16 -48 -62 0
16 -48 -63 0
16 -53 -56 0
16 -53 -60 0
16 -53 -62 0
16 -54 -56 0
16 -54 -60 0
16 -54 -63 0
16 -55 -56 0
16 -55 -62 0
16 -55 -63 0
16 -59 -60 0
16 -59 -62 0
16 -59 -63 0
16 22 204 0
16 -204 205 0
16 38 -204 206 0
16 -206 207 0
16 49 -206 208 0
16 -208 209 0
16 56 -208 0
16 38 205 0
16 -205 210 0
16 49 -205 207 0
16 -207 211 0
16 56 -207 209 0
16 -209 212 0
16 60 -209 0
16 49 210 0
16 -210 213 0
16 56 -210 211 0
16 -211 214 0
16 60 -211 212 0
16 -212 215 0
16 62 -212 0
16 56 213 0
16 60 -213 214 0
16 62 -214 215 0
16 63 -215 0
16 -22 216 0
16 -216 217 0
16 -38 -216 218 0
16 -218 219 0
16 -49 -218 220 0
16 -220 221 0
16 -56 -220 222 0
16 -222 223 0
16 -60 -222 0
16 -38 217 0
16 -217 224 0
16 -49 -217 219 0
16 -219 225 0
16 -56 -219 221 0
16 -221 226 0
16 -60 -221 223 0
16 -223 227 0
16 -62 -223 0
16 -49 224 0
16 -56 -224 225 0
16 -60 -225 226 0
16 -62 -226 227 0
16 -63 -227 0
